NAME: instance_374
TYPE: TSP
DIMENSION: 20
EDGE_WEIGHT_TYPE: EUC_2D
NODE_COORD_SECTION
0 26.07 67.20
1 38.28 12.87
2 21.83 18.01
3 59.76 7.51
4 24.92 45.60
5 90.63 23.52
6 94.96 79.91
7 25.70 12.30
8 57.12 98.23
9 5.39 10.60
10 40.34 41.75
11 14.51 44.66
12 57.71 9.12
13 74.71 85.02
14 33.26 67.54
15 51.51 74.75
16 80.12 36.89
17 53.05 4.51
18 98.66 17.23
19 2.05 61.96
EOF
